Problem:    
Rows:       248
Columns:    89 (72 integer, 72 binary)
Non-zeros:  820
Status:     INTEGER OPTIMAL
Objective:  value = 18.069099 (MINimum)

   No.   Row name        Activity     Lower bound   Upper bound
------ ------------    ------------- ------------- -------------
     1 r.5                   2018.07             0               
     2 r.6                  -1994.39      -1998.81               
     3 r.7                   18.0691             0               
     4 r.8                  -1968.09      -1991.85               
     5 r.9                   2018.07             0               
     6 r.10                 -1995.58      -1998.68               
     7 r.11                  18.0691             0               
     8 r.12                 -1950.72      -1991.31               
     9 r.13                  2018.07             0               
    10 r.14                 -1988.34      -1998.25               
    11 r.15                  18.0691             0               
    12 r.16                 -1976.24      -1986.94               
    13 r.17                  2018.07             0               
    14 r.18                 -1993.09      -1999.19               
    15 r.19                  18.0691             0               
    16 r.20                 -1943.54      -1992.82               
    17 r.21                  2018.07             0               
    18 r.22                 -1991.34      -1998.75               
    19 r.23                  18.0691             0               
    20 r.24                 -1959.42      -1991.32               
    21 r.25                  2018.07             0               
    22 r.26                  -1985.1      -1996.76               
    23 r.27                  18.0691             0               
    24 r.28                  10.6991      -1993.04               
    25 r.29                  2018.07             0               
    26 r.30                 -1981.93      -1996.83               
    27 r.31                  18.0691             0               
    28 r.32                  18.0691      -1992.63               
    29 r.33                  2018.07             0               
    30 r.34                  -1999.9       -1999.9               
    31 r.35                  18.0691             0               
    32 r.36                 0.097222      -1996.47               
    33 r.37                        1             1             = 
    34 r.38                        1             1             = 
    35 r.39                        1             1             = 
    36 r.40                        1             1             = 
    37 r.41                        1             1             = 
    38 r.42                        1             1             = 
    39 r.43                        1             1             = 
    40 r.44                        1             1             = 
    41 r.45                  1998.81       1.32101               
    42 r.46                 -1998.81      -1998.81               
    43 r.47                  17.3674       8.69059               
    44 r.48                 -17.3674      -1991.85               
    45 r.49                  6.05672       1.75371               
    46 r.50                 -6.05672      -1998.81               
    47 r.51                  1991.85       13.0594               
    48 r.52                 -1991.85      -1991.85               
    49 r.53                  1.30301      0.811533               
    50 r.54                 -1.30301      -1998.81               
    51 r.55                  24.5489        7.1815               
    52 r.56                 -24.5489      -1991.85               
    53 r.57                  3.05672       1.25177               
    54 r.58                 -3.05672      -1998.81               
    55 r.59                  8.67685       8.67685               
    56 r.60                 -8.67685      -1991.85               
    57 r.61                 -1990.71      -1993.76               
    58 r.62                  5.09341      -1990.04               
    59 r.63                 -17.0082      -1993.76               
    60 r.64                  1978.79      -1990.04               
    61 r.65                  12.4634        3.1696               
    62 r.66                 -12.4634      -1998.81               
    63 r.67                  1986.16       7.36995               
    64 r.68                 -1986.16      -1991.85               
    65 r.69                 -1994.49      -1995.81               
    66 r.70                 -1968.19      -1988.85               
    67 r.71                 -1994.49      -1995.81               
    68 r.72                 -1968.19      -1988.85               
    69 r.73                  1.18751       1.18751               
    70 r.74                 -1.18751      -1998.68               
    71 r.75                  1982.63       8.14921               
    72 r.76                 -1982.63      -1991.31               
    73 r.77                  7.24423       1.75371               
    74 r.78                 -7.24423      -1998.68               
    75 r.79                  1974.48       13.0594               
    76 r.80                 -1974.48      -1991.31               
    77 r.81                  2.49052      0.811533               
    78 r.82                 -2.49052      -1998.68               
    79 r.83                   7.1815        7.1815               
    80 r.84                  -7.1815      -1991.31               
    81 r.85                  4.24423       1.25177               
    82 r.86                 -4.24423      -1998.68               
    83 r.87                  1991.31       8.67685               
    84 r.88                 -1991.31      -1991.31               
    85 r.89                  10.4813       3.23703               
    86 r.90                 -10.4813      -1998.68               
    87 r.91                  1961.42       6.95862               
    88 r.92                 -1961.42      -1991.31               
    89 r.93                 -1986.35      -1993.83               
    90 r.94                  13.6509      -1989.63               
    91 r.95                 -31.2061      -1993.83               
    92 r.96                  1968.79      -1989.63               
    93 r.97                 -1995.68      -1995.68               
    94 r.98                 -1950.82      -1988.31               
    95 r.99                 -1995.68      -1995.68               
    96 r.100                -1950.82      -1988.31               
    97 r.101                 1993.94       1.18751               
    98 r.102                -1993.94      -1998.25               
    99 r.103                 8.14921       8.14921               
   100 r.104                -8.14921      -1986.94               
   101 r.105                 1992.76       1.32101               
   102 r.106                -1992.76      -1998.25               
   103 r.107                 25.5167       8.69059               
   104 r.108                -25.5167      -1986.94               
   105 r.109                -1995.25      -1995.25               
   106 r.110                -1983.15      -1983.94               
   107 r.111                -44.7942      -1995.25               
   108 r.112                -32.6982      -1983.94               
   109 r.113                    1997       1.25177               
   110 r.114                   -1997      -1998.25               
   111 r.115                 16.8261       8.67685               
   112 r.116                -16.8261      -1986.94               
   113 r.117                 3.23703       3.23703               
   114 r.118                -3.23703      -1998.25               
   115 r.119                 1986.94       6.95862               
   116 r.120                -1986.94      -1986.94               
   117 r.121                -1993.59      -1993.83               
   118 r.122                 6.40663      -1989.63               
   119 r.123                 -5.6894      -1993.83               
   120 r.124                 1994.31      -1989.63               
   121 r.125                -1988.43      -1995.25               
   122 r.126                -1976.34      -1983.94               
   123 r.127                -1988.43      -1995.25               
   124 r.128                -1976.34      -1983.94               
   125 r.129                  1998.7       1.18751               
   126 r.130                 -1998.7      -1999.19               
   127 r.131                 1975.45       8.14921               
   128 r.132                -1975.45      -1992.82               
   129 r.133                 1997.51       1.32101               
   130 r.134                -1997.51      -1999.19               
   131 r.135                 1992.82       8.69059               
   132 r.136                -1992.82      -1992.82               
   133 r.137                -1995.25      -1995.25               
   134 r.138                -1983.15      -1983.94               
   135 r.139                -44.7942      -1995.25               
   136 r.140                -32.6982      -1983.94               
   137 r.141                 1.75371       1.25177               
   138 r.142                -1.75371      -1999.19               
   139 r.143                 1984.13       8.67685               
   140 r.144                -1984.13      -1992.82               
   141 r.145                 7.99074       3.23703               
   142 r.146                -7.99074      -1999.19               
   143 r.147                 1954.24       6.95862               
   144 r.148                -1954.24      -1992.82               
   145 r.149                -1988.84      -1993.83               
   146 r.150                 11.1603      -1989.63               
   147 r.151                -38.3876      -1993.83               
   148 r.152                 1961.61      -1989.63               
   149 r.153                -1993.19      -1993.19               
   150 r.154                -1943.64      -1986.82               
   151 r.155                -1993.19      -1993.19               
   152 r.156                -1943.64      -1986.82               
   153 r.157                 1996.94       1.18751               
   154 r.158                -1996.94      -1998.75               
   155 r.159                 1991.32       8.14921               
   156 r.160                -1991.32      -1991.32               
   157 r.161                 1995.76       1.32101               
   158 r.162                -1995.76      -1998.75               
   159 r.163                 8.69059       8.69059               
   160 r.164                -8.69059      -1991.32               
   161 r.165                       3       1.75371               
   162 r.166                      -3      -1998.75               
   163 r.167                 1983.17       13.0594               
   164 r.168                -1983.17      -1991.32               
   165 r.169                 1998.25      0.811533               
   166 r.170                -1998.25      -1998.75               
   167 r.171                 15.8721        7.1815               
   168 r.172                -15.8721      -1991.32               
   169 r.173                -1993.76      -1993.76               
   170 r.174                 2.03668      -1990.04               
   171 r.175                -25.6851      -1993.76               
   172 r.176                 1970.11      -1990.04               
   173 r.177                -1990.59      -1993.83               
   174 r.178                 9.40663      -1989.63               
   175 r.179                -22.5155      -1993.83               
   176 r.180                 1977.48      -1989.63               
   177 r.181                -1991.43      -1992.75               
   178 r.182                -1959.51      -1985.32               
   179 r.183                -1991.43      -1992.75               
   180 r.184                -1959.51      -1985.32               
   181 r.185                -1990.71      -1993.76               
   182 r.186                 5.09341      -1990.04               
   183 r.187                -17.0082      -1993.76               
   184 r.188                 1978.79      -1990.04               
   185 r.189                 1989.52       1.32101               
   186 r.190                -1989.52      -1996.76               
   187 r.191                  38.576       8.69059               
   188 r.192                 -38.576      -1993.04               
   189 r.193                 1996.76       1.75371               
   190 r.194                -1996.76      -1996.76               
   191 r.195                 13.0593       13.0594               
   192 r.196                -13.0593      -1993.04               
   193 r.197                 1992.01      0.811533               
   194 r.198                -1992.01      -1996.76               
   195 r.199                 45.7575        7.1815               
   196 r.200                -45.7575      -1993.04               
   197 r.201                -1993.76      -1993.76               
   198 r.202                 2.03668      -1990.04               
   199 r.203                -25.6851      -1993.76               
   200 r.204                 1970.11      -1990.04               
   201 r.205                  3.1696        3.1696               
   202 r.206                 -3.1696      -1996.76               
   203 r.207                 7.36995       7.36995               
   204 r.208                -7.36995      -1993.04               
   205 r.209                 1987.54       1.18751               
   206 r.210                -1987.54      -1996.83               
   207 r.211                 13.8386       8.14921               
   208 r.212                -13.8386      -1992.63               
   209 r.213                -1986.35      -1993.83               
   210 r.214                 13.6509      -1989.63               
   211 r.215                -31.2061      -1993.83               
   212 r.216                 1968.79      -1989.63               
   213 r.217                -1993.59      -1993.83               
   214 r.218                 6.40663      -1989.63               
   215 r.219                 -5.6894      -1993.83               
   216 r.220                 1994.31      -1989.63               
   217 r.221                -1988.84      -1993.83               
   218 r.222                 11.1603      -1989.63               
   219 r.223                -38.3876      -1993.83               
   220 r.224                 1961.61      -1989.63               
   221 r.225                -1990.59      -1993.83               
   222 r.226                 9.40663      -1989.63               
   223 r.227                -22.5155      -1993.83               
   224 r.228                 1977.48      -1989.63               
   225 r.229                 1996.83       3.23703               
   226 r.230                -1996.83      -1996.83               
   227 r.231                 1992.63       6.95862               
   228 r.232                -1992.63      -1992.63               
   229 r.233                -1994.49      -1995.81               
   230 r.234                -1968.19      -1988.85               
   231 r.235                -1994.49      -1995.81               
   232 r.236                -1968.19      -1988.85               
   233 r.237                -1995.68      -1995.68               
   234 r.238                -1950.82      -1988.31               
   235 r.239                -1995.68      -1995.68               
   236 r.240                -1950.82      -1988.31               
   237 r.241                -1988.43      -1995.25               
   238 r.242                -1976.34      -1983.94               
   239 r.243                -1988.43      -1995.25               
   240 r.244                -1976.34      -1983.94               
   241 r.245                -1993.19      -1993.19               
   242 r.246                -1943.64      -1986.82               
   243 r.247                -1993.19      -1993.19               
   244 r.248                -1943.64      -1986.82               
   245 r.249                -1991.43      -1992.75               
   246 r.250                -1959.51      -1985.32               
   247 r.251                -1991.43      -1992.75               
   248 r.252                -1959.51      -1985.32               

   No. Column name       Activity     Lower bound   Upper bound
------ ------------    ------------- ------------- -------------
     1 tt                    18.0691             0               
     2 s_1_1        *              1             0             1 
     3 t_1_1                 12.4634             0               
     4 s_1_6        *              1             0             1 
     5 s_2_1        *              0             0             1 
     6 t_2_1                 1986.16             0               
     7 s_2_6        *              0             0             1 
     8 s_1_2        *              1             0             1 
     9 t_1_2                 13.6509             0               
    10 s_1_7        *              1             0             1 
    11 s_2_2        *              0             0             1 
    12 t_2_2                 1968.79             0               
    13 s_2_7        *              0             0             1 
    14 s_1_3        *              1             0             1 
    15 t_1_3                 6.40663             0               
    16 s_2_3        *              0             0             1 
    17 t_2_3                 1994.31             0               
    18 s_1_4        *              1             0             1 
    19 t_1_4                 11.1603             0               
    20 s_2_4        *              0             0             1 
    21 t_2_4                 1961.61             0               
    22 s_1_5        *              1             0             1 
    23 t_1_5                 9.40663             0               
    24 s_2_5        *              0             0             1 
    25 t_2_5                 1977.48             0               
    26 t_1_6                  3.1696             0               
    27 t_2_6                 7.36995             0               
    28 t_1_7                       0             0               
    29 t_2_7                       0             0               
    30 s_1_8        *              1             0             1 
    31 t_1_8                 17.9719             0               
    32 s_2_8        *              0             0             1 
    33 t_2_8                 17.9719             0               
    34 u_1_1_2      *              1             0             1 
    35 u_2_1_2      *              0             0             1 
    36 u_1_1_3      *              0             0             1 
    37 u_2_1_3      *              1             0             1 
    38 u_1_1_4      *              0             0             1 
    39 u_2_1_4      *              0             0             1 
    40 u_1_1_5      *              0             0             1 
    41 u_2_1_5      *              0             0             1 
    42 u_1_1_7      *              0             0             1 
    43 u_2_1_7      *              0             0             1 
    44 u_1_2_1      *              0             0             1 
    45 u_2_2_1      *              1             0             1 
    46 u_1_2_3      *              0             0             1 
    47 u_2_2_3      *              1             0             1 
    48 u_1_2_4      *              0             0             1 
    49 u_2_2_4      *              0             0             1 
    50 u_1_2_5      *              0             0             1 
    51 u_2_2_5      *              1             0             1 
    52 u_1_2_6      *              0             0             1 
    53 u_2_2_6      *              0             0             1 
    54 u_1_3_1      *              1             0             1 
    55 u_2_3_1      *              0             0             1 
    56 u_1_3_2      *              1             0             1 
    57 u_2_3_2      *              0             0             1 
    58 u_1_3_5      *              1             0             1 
    59 u_2_3_5      *              0             0             1 
    60 u_1_3_6      *              0             0             1 
    61 u_2_3_6      *              0             0             1 
    62 u_1_4_1      *              1             0             1 
    63 u_2_4_1      *              1             0             1 
    64 u_1_4_2      *              1             0             1 
    65 u_2_4_2      *              1             0             1 
    66 u_1_4_5      *              0             0             1 
    67 u_2_4_5      *              1             0             1 
    68 u_1_4_6      *              0             0             1 
    69 u_2_4_6      *              0             0             1 
    70 u_1_5_1      *              1             0             1 
    71 u_2_5_1      *              1             0             1 
    72 u_1_5_2      *              1             0             1 
    73 u_2_5_2      *              0             0             1 
    74 u_1_5_3      *              0             0             1 
    75 u_2_5_3      *              1             0             1 
    76 u_1_5_4      *              1             0             1 
    77 u_2_5_4      *              0             0             1 
    78 u_1_6_2      *              1             0             1 
    79 u_2_6_2      *              1             0             1 
    80 u_1_6_3      *              1             0             1 
    81 u_2_6_3      *              1             0             1 
    82 u_1_6_4      *              1             0             1 
    83 u_2_6_4      *              1             0             1 
    84 u_1_6_7      *              0             0             1 
    85 u_2_6_7      *              0             0             1 
    86 u_1_7_1      *              1             0             1 
    87 u_2_7_1      *              1             0             1 
    88 u_1_7_6      *              1             0             1 
    89 u_2_7_6      *              1             0             1 

Integer feasibility conditions:

KKT.PE: max.abs.err = 2.27e-13 on row 41
        max.rel.err = 5.65e-17 on row 42
        High quality

KKT.PB: max.abs.err = 2.27e-13 on row 149
        max.rel.err = 1.04e-14 on row 79
        High quality

End of output
